c 
p cnf 10 40
-1 2 -5 -3 0
-9 6 2 -8 -4 0
4 2 5 -1 0
-8 3 2 -6 9 0
-10 0
6 4 -10 -7 0
-10 3 0
-5 4 6 0
1 -5 -9 0
4 -1 0
-1 4 10 -2 -8 0
-10 -8 0
-4 5 8 0
-8 -2 -4 7 3 0
7 0
5 -10 -8 1 -9 0
-6 9 -10 0
10 -7 2 1 0
-6 9 0
6 -8 -4 9 -7 0
6 -4 0
-2 0
10 6 0
7 3 8 6 2 0
-10 3 0
4 0
6 10 -2 0
4 -3 8 0
8 -5 1 0
-9 -3 0
1 0
-2 1 0
-5 8 -6 -9 0
6 0
3 -5 0
-8 -4 -6 0
-10 -3 9 8 0
3 1 0
3 7 0
4 3 -9 6 -10 0
